clingo version 5.2.2
Reading from ...r180_u540_o12_N010_encoding-a_maxSP.lp ...
Solving...
Solving...
Solving...
Solving...
Solving...
Solving...
Solving...
Solving...
Solving...
Solving...
Solving...
Solving...
Solving...
Solving...
Solving...
Solving...
Solving...
Solving...
Solving...
Solving...
Solving...
Solving...
Solving...
Solving...
Solving...
Solving...
Solving...
Solving...
Solving...
Solving...
Solving...
Solving...
Solving...
Solving...
Solving...
Solving...
Solving...
Solving...
Solving...
Solving...
Solving...
Solving...
Solving...
Solving...
Solving...
Solving...
Solving...
Solving...
Solving...
Solving...
Solving...
Solving...
Solving...
Solving...
Solving...
Solving...
Solving...
Solving...
Solving...
Solving...
Solving...
Solving...
Solving...
Solving...
Solving...
Solving...
Solving...
Solving...
Solving...
Solving...
UNKNOWN

TIME LIMIT   : 1
Models       : 0+
Calls        : 70
Time         : 1800.008s (Solving: 1714.40s 1st Model: 0.00s Unsat: 1168.25s)
CPU Time     : 1799.072s

Choices      : 2555821 
Conflicts    : 626110   (Analyzed: 626064)
Restarts     : 2087     (Average: 299.98 Last: 1640)
Problems     : 70       (Average Length: 2.00 Splits: 0)
Lemmas       : 626064   (Deleted: 557166)
  Binary     : 2230     (Ratio:   0.36%)
  Ternary    : 7266     (Ratio:   1.16%)
  Conflict   : 626064   (Average Length:  173.7 Ratio: 100.00%) 
  Loop       : 0        (Average Length:    0.0 Ratio:   0.00%) 
  Other      : 0        (Average Length:    0.0 Ratio:   0.00%) 
Backjumps    : 626064   (Average:  3.96 Max: 4166 Sum: 2481516)
  Executed   : 625695   (Average:  3.96 Max: 4166 Sum: 2481086 Ratio:  99.98%)
  Bounded    : 369      (Average:  1.17 Max:   2 Sum:    430 Ratio:   0.02%)

Rules        : 6220648  (Original: 5509883)
  Choice     : 483     
Atoms        : 1379561  (Original: 1379498 Auxiliary: 63)
Bodies       : 5258480  (Original: 4547782)
  Count      : 14751    (Original: 31661)
Equivalences : 2659386  (Atom=Atom: 652859 Body=Body: 19253 Other: 1987274)
Tight        : Yes
Variables    : 1233825  (Eliminated:    0 Frozen: 320152)
Constraints  : 4959328  (Binary:  66.0% Ternary:  31.3% Other:   2.7%)

